%BLOCK LATTICE_CART
ang    # angstrom units
  6.818500000000     0.000000000000     0.000000000000   
 -2.272801270892     38.344901658800    0.000000000000   
 -2.272801270892    -19.172349551344    33.207717414844  
%ENDBLOCK LATTICE_CART

%BLOCK POSITIONS_FRAC
H      0.111246400000     0.546123000000     0.027598000000   
H      0.002022000000     0.481475000000     0.453877000000   
H      0.105727000000     0.972402000000     0.518526000000   
H      0.138308800000     0.576161000000     0.012267000000   
H      0.023077000000     0.436106000000     0.423839000000   
H      0.135855600000     0.987733000000     0.563894000000   
H      0.112305600000     0.529517000000     0.975408000000   
H      0.006402400000     0.445891000000     0.470483000000   
H      0.117224200000     0.024592000000     0.554110000000   
H      0.173715200000     0.462620000000     0.081618000000   
H      0.081191400000     0.618997000000     0.537379000000   
H      0.157392000000     0.918383000000     0.381003000000   
H      0.121493200000     0.453355000000     0.072796000000   
H      0.030822800000     0.619441000000     0.546645000000   
H      0.106934600000     0.927205000000     0.380559000000   
H      0.149897400000     0.454160000000     0.035530000000   
H      0.059065800000     0.581370000000     0.545840000000   
H      0.142791800000     0.964470000000     0.418630000000   
H      0.159677200000     0.657906000000     0.178437000000   
H      0.028095400000     0.520532000000     0.342094000000   
H      0.123989200000     0.821563000000     0.479469000000   
H      0.149978400000     0.655312000000     0.131341000000   
H      0.018915600000     0.476030000000     0.344688000000   
H      0.123709200000     0.868659000000     0.523970000000   
H      0.110202200000     0.652304000000     0.158300000000   
H      0.179741000000     0.505997000000     0.347696000000   
H      0.078541400000     0.841700000000     0.494004000000   
H      0.027422600000     0.495670000000     0.056571000000   
H      0.128288600000     0.560901000000     0.504330000000   
H      0.016108200000     0.943429000000     0.439099000000   
H      0.177036600000     0.597517000000     0.084962000000   
H      0.057533000000     0.487445000000     0.402483000000   
H      0.160043600000     0.915038000000     0.512555000000   
H      0.105000400000     0.513301000000     0.129070000000   
H      0.002340000000     0.615769000000     0.486699000000   
H      0.079186200000     0.870931000000     0.384231000000   
H      0.189749800000     0.135704000000     0.584599000000   
H      0.162608400000     0.448895000000     0.864295000000   
H      0.072830000000     0.415401000000     0.551105000000   
H      0.042566800000     0.192575000000     0.614134000000   
H      0.004051400000     0.421559000000     0.807425000000   
H      0.119740000000     0.385866000000     0.578441000000   
H      0.105337000000     0.216733000000     0.588663000000   
H      0.061990000000     0.371930000000     0.783267000000   
H      0.187604200000     0.411336000000     0.628070000000   
H      0.096171000000     0.783242000000     0.413053000000   
H      0.139523000000     0.629811000000     0.216758000000   
H      0.013560600000     0.586947000000     0.370189000000   
H      0.159038800000     0.807311000000     0.386941000000   
H      0.197577000000     0.579632000000     0.192690000000   
H      0.081650400000     0.613059000000     0.420369000000   
H      0.011805200000     0.864377000000     0.417322000000   
H      0.038930200000     0.552946000000     0.135624000000   
H      0.128340800000     0.582678000000     0.447054000000   
H      0.096615200000     0.488989000000     0.870756000000   
H      0.198817800000     0.381768000000     0.511011000000   
H      0.122463800000     0.129243000000     0.618232000000   
H      0.021224800000     0.404974000000     0.912962000000   
H      0.140230400000     0.507989000000     0.595027000000   
H      0.038632800000     0.087038000000     0.492011000000   
H      0.171017600000     0.506764000000     0.941304000000   
H      0.069664800000     0.434539000000     0.493236000000   
H      0.182756800000     0.058696000000     0.565461000000   
H      0.089135400000     0.349624000000     0.841001000000   
H      0.019211400000     0.491376000000     0.650376000000   
H      0.120936000000     0.158999000000     0.508623000000   
H      0.049059200000     0.347299000000     0.867959000000   
H      0.179600000000     0.520659000000     0.652701000000   
H      0.075468200000     0.132042000000     0.479341000000   
H      0.039780600000     0.344518000000     0.820747000000   
H      0.170877600000     0.476229000000     0.655482000000   
H      0.075632000000     0.179253000000     0.523771000000   
H      0.049148000000     0.548310000000     0.962371000000   
H      0.139486000000     0.414061000000     0.451690000000   
H      0.056673400000     0.037629000000     0.585940000000   
H      0.078160800000     0.548998000000     0.925424000000   
H      0.168361200000     0.376426000000     0.451002000000   
H      0.093075400000     0.074575000000     0.623574000000   
H      0.025996000000     0.539109000000     0.915752000000   
H      0.118174000000     0.376644000000     0.460891000000   
H      0.042845000000     0.084247000000     0.623356000000   
H      0.085853400000     0.472816000000     0.022853000000   
H      0.191290000000     0.550037000000     0.527184000000   
H      0.081282600000     0.977147000000     0.449963000000   
H      0.060114200000     0.426237000000     0.985479000000   
H      0.174866600000     0.559242000000     0.573763000000   
H      0.063018200000     0.014521000000     0.440758000000   
H      0.087535000000     0.456644000000     0.970802000000   
H      0.196206400000     0.514159000000     0.543356000000   
H      0.093374400000     0.029197000000     0.485841000000   
C      0.130014000000     0.544829000000     0.004796000000   
C      0.021048400000     0.459967000000     0.455171000000   
C      0.129055000000     0.995204000000     0.540033000000   
C      0.147310400000     0.468474000000     0.068012000000   
C      0.053616000000     0.599538000000     0.531526000000   
C      0.133708200000     0.931988000000     0.400462000000   
C      0.139804200000     0.643164000000     0.150194000000   
C      0.011171000000     0.507031000000     0.356836000000   
C      0.109764600000     0.849805000000     0.492969000000   
C      0.032497600000     0.479379000000     0.995028000000   
C      0.136621800000     0.515649000000     0.520620000000   
C      0.033492000000     0.004972000000     0.484351000000   
C      0.014725800000     0.497739000000     0.030863000000   
C      0.115178200000     0.533124000000     0.502261000000   
C      0.008553200000     0.969137000000     0.466876000000   
C      0.181968400000     0.519442000000     0.035524000000   
C      0.078080000000     0.516082000000     0.480557000000   
C      0.174863400000     0.964476000000     0.483918000000   
C      0.121226200000     0.531743000000     0.119151000000   
C      0.014877600000     0.587408000000     0.468257000000   
C      0.097396000000     0.880849000000     0.412592000000   
C      0.144167800000     0.513089000000     0.087025000000   
C      0.041550200000     0.573937000000     0.486911000000   
C      0.126762800000     0.912975000000     0.426063000000   
C      0.163185200000     0.537374000000     0.073716000000   
C      0.055710400000     0.536342000000     0.462625000000   
C      0.148441800000     0.926284000000     0.463659000000   
C      0.161431800000     0.579103000000     0.095275000000   
C      0.045611000000     0.516172000000     0.420897000000   
C      0.142376200000     0.904725000000     0.483828000000   
C      0.140120600000     0.598063000000     0.128626000000   
C      0.020507800000     0.530564000000     0.401938000000   
C      0.114394800000     0.871374000000     0.469437000000   
C      0.118237200000     0.573279000000     0.139623000000   
C      0.003581200000     0.566345000000     0.426721000000   
C      0.090312200000     0.860377000000     0.433656000000   
C      0.012187400000     0.197631000000     0.608562000000   
C      0.172660800000     0.410930000000     0.802368000000   
C      0.090475200000     0.391438000000     0.589070000000   
C      0.182665400000     0.165907000000     0.592373000000   
C      0.149483400000     0.426465000000     0.834092000000   
C      0.064190800000     0.407627000000     0.573534000000   
C      0.143552800000     0.172537000000     0.584852000000   
C      0.109045000000     0.412315000000     0.827463000000   
C      0.026582400000     0.415148000000     0.587685000000   
C      0.135466200000     0.210948000000     0.593719000000   
C      0.093276000000     0.382770000000     0.789051000000   
C      0.016722200000     0.406280000000     0.617229000000   
C      0.085913200000     0.633536000000     0.244182000000   
C      0.159206000000     0.610647000000     0.366465000000   
C      0.037076600000     0.755818000000     0.389353000000   
C      0.044838800000     0.619295000000     0.237125000000   
C      0.120979600000     0.617831000000     0.380706000000   
C      0.197413400000     0.762875000000     0.382169000000   
C      0.018674200000     0.631772000000     0.269517000000   
C      0.092319600000     0.637746000000     0.368228000000   
C      0.164770600000     0.730483000000     0.362254000000   
C      0.182959200000     0.368858000000     0.730483000000   
C      0.109187600000     0.361624000000     0.631141000000   
C      0.036862600000     0.269516000000     0.638376000000   
C      0.156829800000     0.381728000000     0.762974000000   
C      0.080484400000     0.381246000000     0.618272000000   
C      0.004235200000     0.237026000000     0.618754000000   
C      0.115736600000     0.367589000000     0.755982000000   
C      0.042219000000     0.388392000000     0.632411000000   
C      0.164540400000     0.244018000000     0.611607000000   
C      0.066049200000     0.788976000000     0.407846000000   
C      0.108254400000     0.618871000000     0.211025000000   
C      0.184480200000     0.592155000000     0.381130000000   
C      0.057839600000     0.827457000000     0.417120000000   
C      0.092348400000     0.589663000000     0.172543000000   
C      0.174415600000     0.582880000000     0.410337000000   
C      0.018809600000     0.834122000000     0.409419000000   
C      0.051985600000     0.575297000000     0.165878000000   
C      0.136925800000     0.590581000000     0.424703000000   
C      0.189382600000     0.802311000000     0.392702000000   
C      0.028920800000     0.590392000000     0.197690000000   
C      0.110842000000     0.607298000000     0.409608000000   
C      0.082653600000     0.428980000000     0.859961000000   
C      0.196858000000     0.430981000000     0.571020000000   
C      0.110661800000     0.140039000000     0.569019000000   
C      0.059743400000     0.404315000000     0.870394000000   
C      0.178880800000     0.466079000000     0.595685000000   
C      0.085665200000     0.129606000000     0.533921000000   
C      0.037566600000     0.423347000000     0.903046000000   
C      0.152897600000     0.479699000000     0.576653000000   
C      0.056957800000     0.096954000000     0.520301000000   
C      0.035812200000     0.465082000000     0.924418000000   
C      0.142796000000     0.459336000000     0.534919000000   
C      0.050928800000     0.075582000000     0.540664000000   
C      0.055739200000     0.489249000000     0.911473000000   
C      0.157889600000     0.422225000000     0.510751000000   
C      0.073444400000     0.088526000000     0.577775000000   
C      0.079677200000     0.470551000000     0.880206000000   
C      0.185567200000     0.409655000000     0.529449000000   
C      0.103636000000     0.119794000000     0.590345000000   
C      0.016582600000     0.483053000000     0.962385000000   
C      0.119972200000     0.479332000000     0.516947000000   
C      0.024105800000     0.037615000000     0.520668000000   
C      0.183784800000     0.504718000000     0.967008000000   
C      0.082841200000     0.462290000000     0.495282000000   
C      0.190383200000     0.032992000000     0.537710000000   
C      0.166018800000     0.523108000000     0.002891000000   
C      0.061397400000     0.479784000000     0.476893000000   
C      0.165440600000     0.997109000000     0.520217000000   
C      0.059635200000     0.359173000000     0.849012000000   
C      0.187801200000     0.489839000000     0.640827000000   
C      0.089833400000     0.150988000000     0.510160000000   
C      0.052281000000     0.533754000000     0.929967000000   
C      0.145530200000     0.396213000000     0.466246000000   
C      0.066287200000     0.070033000000     0.603787000000   
C      0.068471600000     0.457662000000     0.993276000000   
C      0.176939200000     0.535614000000     0.542338000000   
C      0.069816400000     0.006724000000     0.464386000000   
O      0.105010400000     0.659356000000     0.280652000000   
O      0.173139200000     0.621297000000     0.340645000000   
O      0.048879800000     0.719348000000     0.378703000000   
O      0.033007000000     0.657423000000     0.306197000000   
O      0.101522400000     0.648775000000     0.342577000000   
O      0.171767600000     0.693804000000     0.351226000000   
O      0.182513200000     0.617765000000     0.262168000000   
O      0.058960400000     0.644404000000     0.382237000000   
O      0.130079600000     0.737833000000     0.355596000000   
O      0.019131800000     0.382842000000     0.737722000000   
O      0.142563200000     0.354879000000     0.617157000000   
O      0.071587200000     0.262277000000     0.645121000000   
O      0.168609800000     0.342968000000     0.693907000000   
O      0.100016200000     0.350937000000     0.657031000000   
O      0.029828400000     0.306093000000     0.649062000000   
O      0.096706600000     0.341378000000     0.719612000000   
O      0.028431000000     0.378233000000     0.658622000000   
O      0.152784200000     0.280388000000     0.621767000000   
Mg     0.145557800000     0.639617000000     0.305894000000   
Mg     0.017634600000     0.666278000000     0.360384000000   
Mg     0.084379000000     0.694106000000     0.333722000000   
Mg     0.056055200000     0.360588000000     0.693934000000   
Mg     0.183937600000     0.333345000000     0.639412000000   
Mg     0.117268400000     0.306065000000     0.666654000000   
H      0.311246400000     0.546123000000     0.027598000000   
H      0.202022000000     0.481475000000     0.453877000000   
H      0.305727000000     0.972402000000     0.518526000000   
H      0.338308800000     0.576161000000     0.012267000000   
H      0.223077000000     0.436106000000     0.423839000000   
H      0.335855600000     0.987733000000     0.563894000000   
H      0.312305600000     0.529517000000     0.975408000000   
H      0.206402400000     0.445891000000     0.470483000000   
H      0.317224200000     0.024592000000     0.554110000000   
H      0.373715200000     0.462620000000     0.081618000000   
H      0.281191400000     0.618997000000     0.537379000000   
H      0.357392000000     0.918383000000     0.381003000000   
H      0.321493200000     0.453355000000     0.072796000000   
H      0.230822800000     0.619441000000     0.546645000000   
H      0.306934600000     0.927205000000     0.380559000000   
H      0.349897400000     0.454160000000     0.035530000000   
H      0.259065800000     0.581370000000     0.545840000000   
H      0.342791800000     0.964470000000     0.418630000000   
H      0.359677200000     0.657906000000     0.178437000000   
H      0.228095400000     0.520532000000     0.342094000000   
H      0.323989200000     0.821563000000     0.479469000000   
H      0.349978400000     0.655312000000     0.131341000000   
H      0.218915600000     0.476030000000     0.344688000000   
H      0.323709200000     0.868659000000     0.523970000000   
H      0.310202200000     0.652304000000     0.158300000000   
H      0.379741000000     0.505997000000     0.347696000000   
H      0.278541400000     0.841700000000     0.494004000000   
H      0.227422600000     0.495670000000     0.056571000000   
H      0.328288600000     0.560901000000     0.504330000000   
H      0.216108200000     0.943429000000     0.439099000000   
H      0.377036600000     0.597517000000     0.084962000000   
H      0.257533000000     0.487445000000     0.402483000000   
H      0.360043600000     0.915038000000     0.512555000000   
H      0.305000400000     0.513301000000     0.129070000000   
H      0.202340000000     0.615769000000     0.486699000000   
H      0.279186200000     0.870931000000     0.384231000000   
H      0.389749800000     0.135704000000     0.584599000000   
H      0.362608400000     0.448895000000     0.864295000000   
H      0.272830000000     0.415401000000     0.551105000000   
H      0.242566800000     0.192575000000     0.614134000000   
H      0.204051400000     0.421559000000     0.807425000000   
H      0.319740000000     0.385866000000     0.578441000000   
H      0.305337000000     0.216733000000     0.588663000000   
H      0.261990000000     0.371930000000     0.783267000000   
H      0.387604200000     0.411336000000     0.628070000000   
H      0.296171000000     0.783242000000     0.413053000000   
H      0.339523000000     0.629811000000     0.216758000000   
H      0.213560600000     0.586947000000     0.370189000000   
H      0.359038800000     0.807311000000     0.386941000000   
H      0.397577000000     0.579632000000     0.192690000000   
H      0.281650400000     0.613059000000     0.420369000000   
H      0.211805200000     0.864377000000     0.417322000000   
H      0.238930200000     0.552946000000     0.135624000000   
H      0.328340800000     0.582678000000     0.447054000000   
H      0.296615200000     0.488989000000     0.870756000000   
H      0.398817800000     0.381768000000     0.511011000000   
H      0.322463800000     0.129243000000     0.618232000000   
H      0.221224800000     0.404974000000     0.912962000000   
H      0.340230400000     0.507989000000     0.595027000000   
H      0.238632800000     0.087038000000     0.492011000000   
H      0.371017600000     0.506764000000     0.941304000000   
H      0.269664800000     0.434539000000     0.493236000000   
H      0.382756800000     0.058696000000     0.565461000000   
H      0.289135400000     0.349624000000     0.841001000000   
H      0.219211400000     0.491376000000     0.650376000000   
H      0.320936000000     0.158999000000     0.508623000000   
H      0.249059200000     0.347299000000     0.867959000000   
H      0.379600000000     0.520659000000     0.652701000000   
H      0.275468200000     0.132042000000     0.479341000000   
H      0.239780600000     0.344518000000     0.820747000000   
H      0.370877600000     0.476229000000     0.655482000000   
H      0.275632000000     0.179253000000     0.523771000000   
H      0.249148000000     0.548310000000     0.962371000000   
H      0.339486000000     0.414061000000     0.451690000000   
H      0.256673400000     0.037629000000     0.585940000000   
H      0.278160800000     0.548998000000     0.925424000000   
H      0.368361200000     0.376426000000     0.451002000000   
H      0.293075400000     0.074575000000     0.623574000000   
H      0.225996000000     0.539109000000     0.915752000000   
H      0.318174000000     0.376644000000     0.460891000000   
H      0.242845000000     0.084247000000     0.623356000000   
H      0.285853400000     0.472816000000     0.022853000000   
H      0.391290000000     0.550037000000     0.527184000000   
H      0.281282600000     0.977147000000     0.449963000000   
H      0.260114200000     0.426237000000     0.985479000000   
H      0.374866600000     0.559242000000     0.573763000000   
H      0.263018200000     0.014521000000     0.440758000000   
H      0.287535000000     0.456644000000     0.970802000000   
H      0.396206400000     0.514159000000     0.543356000000   
H      0.293374400000     0.029197000000     0.485841000000   
C      0.330014000000     0.544829000000     0.004796000000   
C      0.221048400000     0.459967000000     0.455171000000   
C      0.329055000000     0.995204000000     0.540033000000   
C      0.347310400000     0.468474000000     0.068012000000   
C      0.253616000000     0.599538000000     0.531526000000   
C      0.333708200000     0.931988000000     0.400462000000   
C      0.339804200000     0.643164000000     0.150194000000   
C      0.211171000000     0.507031000000     0.356836000000   
C      0.309764600000     0.849805000000     0.492969000000   
C      0.232497600000     0.479379000000     0.995028000000   
C      0.336621800000     0.515649000000     0.520620000000   
C      0.233492000000     0.004972000000     0.484351000000   
C      0.214725800000     0.497739000000     0.030863000000   
C      0.315178200000     0.533124000000     0.502261000000   
C      0.208553200000     0.969137000000     0.466876000000   
C      0.381968400000     0.519442000000     0.035524000000   
C      0.278080000000     0.516082000000     0.480557000000   
C      0.374863400000     0.964476000000     0.483918000000   
C      0.321226200000     0.531743000000     0.119151000000   
C      0.214877600000     0.587408000000     0.468257000000   
C      0.297396000000     0.880849000000     0.412592000000   
C      0.344167800000     0.513089000000     0.087025000000   
C      0.241550200000     0.573937000000     0.486911000000   
C      0.326762800000     0.912975000000     0.426063000000   
C      0.363185200000     0.537374000000     0.073716000000   
C      0.255710400000     0.536342000000     0.462625000000   
C      0.348441800000     0.926284000000     0.463659000000   
C      0.361431800000     0.579103000000     0.095275000000   
C      0.245611000000     0.516172000000     0.420897000000   
C      0.342376200000     0.904725000000     0.483828000000   
C      0.340120600000     0.598063000000     0.128626000000   
C      0.220507800000     0.530564000000     0.401938000000   
C      0.314394800000     0.871374000000     0.469437000000   
C      0.318237200000     0.573279000000     0.139623000000   
C      0.203581200000     0.566345000000     0.426721000000   
C      0.290312200000     0.860377000000     0.433656000000   
C      0.212187400000     0.197631000000     0.608562000000   
C      0.372660800000     0.410930000000     0.802368000000   
C      0.290475200000     0.391438000000     0.589070000000   
C      0.382665400000     0.165907000000     0.592373000000   
C      0.349483400000     0.426465000000     0.834092000000   
C      0.264190800000     0.407627000000     0.573534000000   
C      0.343552800000     0.172537000000     0.584852000000   
C      0.309045000000     0.412315000000     0.827463000000   
C      0.226582400000     0.415148000000     0.587685000000   
C      0.335466200000     0.210948000000     0.593719000000   
C      0.293276000000     0.382770000000     0.789051000000   
C      0.216722200000     0.406280000000     0.617229000000   
C      0.285913200000     0.633536000000     0.244182000000   
C      0.359206000000     0.610647000000     0.366465000000   
C      0.237076600000     0.755818000000     0.389353000000   
C      0.244838800000     0.619295000000     0.237125000000   
C      0.320979600000     0.617831000000     0.380706000000   
C      0.397413400000     0.762875000000     0.382169000000   
C      0.218674200000     0.631772000000     0.269517000000   
C      0.292319600000     0.637746000000     0.368228000000   
C      0.364770600000     0.730483000000     0.362254000000   
C      0.382959200000     0.368858000000     0.730483000000   
C      0.309187600000     0.361624000000     0.631141000000   
C      0.236862600000     0.269516000000     0.638376000000   
C      0.356829800000     0.381728000000     0.762974000000   
C      0.280484400000     0.381246000000     0.618272000000   
C      0.204235200000     0.237026000000     0.618754000000   
C      0.315736600000     0.367589000000     0.755982000000   
C      0.242219000000     0.388392000000     0.632411000000   
C      0.364540400000     0.244018000000     0.611607000000   
C      0.266049200000     0.788976000000     0.407846000000   
C      0.308254400000     0.618871000000     0.211025000000   
C      0.384480200000     0.592155000000     0.381130000000   
C      0.257839600000     0.827457000000     0.417120000000   
C      0.292348400000     0.589663000000     0.172543000000   
C      0.374415600000     0.582880000000     0.410337000000   
C      0.218809600000     0.834122000000     0.409419000000   
C      0.251985600000     0.575297000000     0.165878000000   
C      0.336925800000     0.590581000000     0.424703000000   
C      0.389382600000     0.802311000000     0.392702000000   
C      0.228920800000     0.590392000000     0.197690000000   
C      0.310842000000     0.607298000000     0.409608000000   
C      0.282653600000     0.428980000000     0.859961000000   
C      0.396858000000     0.430981000000     0.571020000000   
C      0.310661800000     0.140039000000     0.569019000000   
C      0.259743400000     0.404315000000     0.870394000000   
C      0.378880800000     0.466079000000     0.595685000000   
C      0.285665200000     0.129606000000     0.533921000000   
C      0.237566600000     0.423347000000     0.903046000000   
C      0.352897600000     0.479699000000     0.576653000000   
C      0.256957800000     0.096954000000     0.520301000000   
C      0.235812200000     0.465082000000     0.924418000000   
C      0.342796000000     0.459336000000     0.534919000000   
C      0.250928800000     0.075582000000     0.540664000000   
C      0.255739200000     0.489249000000     0.911473000000   
C      0.357889600000     0.422225000000     0.510751000000   
C      0.273444400000     0.088526000000     0.577775000000   
C      0.279677200000     0.470551000000     0.880206000000   
C      0.385567200000     0.409655000000     0.529449000000   
C      0.303636000000     0.119794000000     0.590345000000   
C      0.216582600000     0.483053000000     0.962385000000   
C      0.319972200000     0.479332000000     0.516947000000   
C      0.224105800000     0.037615000000     0.520668000000   
C      0.383784800000     0.504718000000     0.967008000000   
C      0.282841200000     0.462290000000     0.495282000000   
C      0.390383200000     0.032992000000     0.537710000000   
C      0.366018800000     0.523108000000     0.002891000000   
C      0.261397400000     0.479784000000     0.476893000000   
C      0.365440600000     0.997109000000     0.520217000000   
C      0.259635200000     0.359173000000     0.849012000000   
C      0.387801200000     0.489839000000     0.640827000000   
C      0.289833400000     0.150988000000     0.510160000000   
C      0.252281000000     0.533754000000     0.929967000000   
C      0.345530200000     0.396213000000     0.466246000000   
C      0.266287200000     0.070033000000     0.603787000000   
C      0.268471600000     0.457662000000     0.993276000000   
C      0.376939200000     0.535614000000     0.542338000000   
C      0.269816400000     0.006724000000     0.464386000000   
O      0.305010400000     0.659356000000     0.280652000000   
O      0.373139200000     0.621297000000     0.340645000000   
O      0.248879800000     0.719348000000     0.378703000000   
O      0.233007000000     0.657423000000     0.306197000000   
O      0.301522400000     0.648775000000     0.342577000000   
O      0.371767600000     0.693804000000     0.351226000000   
O      0.382513200000     0.617765000000     0.262168000000   
O      0.258960400000     0.644404000000     0.382237000000   
O      0.330079600000     0.737833000000     0.355596000000   
O      0.219131800000     0.382842000000     0.737722000000   
O      0.342563200000     0.354879000000     0.617157000000   
O      0.271587200000     0.262277000000     0.645121000000   
O      0.368609800000     0.342968000000     0.693907000000   
O      0.300016200000     0.350937000000     0.657031000000   
O      0.229828400000     0.306093000000     0.649062000000   
O      0.296706600000     0.341378000000     0.719612000000   
O      0.228431000000     0.378233000000     0.658622000000   
O      0.352784200000     0.280388000000     0.621767000000   
Mg     0.345557800000     0.639617000000     0.305894000000   
Mg     0.217634600000     0.666278000000     0.360384000000   
Mg     0.284379000000     0.694106000000     0.333722000000   
Mg     0.256055200000     0.360588000000     0.693934000000   
Mg     0.383937600000     0.333345000000     0.639412000000   
Mg     0.317268400000     0.306065000000     0.666654000000   
H      0.511246400000     0.546123000000     0.027598000000   
H      0.402022000000     0.481475000000     0.453877000000   
H      0.505727000000     0.972402000000     0.518526000000   
H      0.538308800000     0.576161000000     0.012267000000   
H      0.423077000000     0.436106000000     0.423839000000   
H      0.535855600000     0.987733000000     0.563894000000   
H      0.512305600000     0.529517000000     0.975408000000   
H      0.406402400000     0.445891000000     0.470483000000   
H      0.517224200000     0.024592000000     0.554110000000   
H      0.573715200000     0.462620000000     0.081618000000   
H      0.481191400000     0.618997000000     0.537379000000   
H      0.557392000000     0.918383000000     0.381003000000   
H      0.521493200000     0.453355000000     0.072796000000   
H      0.430822800000     0.619441000000     0.546645000000   
H      0.506934600000     0.927205000000     0.380559000000   
H      0.549897400000     0.454160000000     0.035530000000   